(declare-fun temp648_1 () (_ BitVec 64))
(declare-fun temp648_2 () (_ BitVec 64))
(declare-fun var263431 () (_ BitVec 64))
(declare-fun k!0 () Bool)
(declare-fun ARGNAME_input_NAMEEND_DIM () (_ BitVec 64))
(declare-fun temp648_4 () (_ BitVec 64))
(declare-fun temp648_3 () (_ BitVec 64))
(declare-fun temp648_6 () (_ BitVec 64))
(declare-fun temp648_5 () (_ BitVec 64))
(declare-fun temp648_7 () (_ BitVec 64))
(declare-fun var856789 () (_ BitVec 64))
(declare-fun var922336 () (_ BitVec 64))
(declare-fun temp648_8 () (_ BitVec 64))
(declare-fun var1708720 () (_ BitVec 64))
(declare-fun temp648_9 () (_ BitVec 64))
(declare-fun var1967531 () (_ BitVec 64))
(declare-fun temp648_10 () (_ BitVec 64))
(declare-fun var2755860 () (_ BitVec 64))
(declare-fun var2755868 () (_ BitVec 64))
(declare-fun temp648_11 () (_ BitVec 64))
(declare-fun var2887142 () (_ BitVec 64))
(declare-fun var2887144 () (_ BitVec 64))
(declare-fun var2952687 () (_ BitVec 64))
(declare-fun var3018231 () (_ BitVec 64))
(declare-fun temp648_13 () (_ BitVec 64))
(declare-fun temp648_12 () (_ BitVec 64))
(declare-fun var4328912 () (_ BitVec 64))
(declare-fun temp648_14 () (_ BitVec 64))
(declare-fun temp648_15 () (_ BitVec 64))
(declare-fun var4394453 () (_ BitVec 64))
(declare-fun var4460000 () (_ BitVec 64))
(declare-fun var4261402 () (_ BitVec 64))
(declare-fun temp648_16 () (_ BitVec 64))
(declare-fun var66421 () (_ BitVec 64))
(declare-fun temp648_17 () (_ BitVec 64))
(declare-fun var5377300 () (_ BitVec 64))
(declare-fun temp648_18 () (_ BitVec 64))
(declare-fun var5442927 () (_ BitVec 64))
(declare-fun temp648_19 () (_ BitVec 64))
(declare-fun var66448 () (_ BitVec 64))
(declare-fun temp648_21 () (_ BitVec 64))
(declare-fun temp648_20 () (_ BitVec 64))
(declare-fun var66404 () (_ BitVec 64))
(declare-fun var66402 () (_ BitVec 64))
(declare-fun temp648_22 () (_ BitVec 64))
(declare-fun var66408 () (_ BitVec 64))
(declare-fun temp648_23 () (_ BitVec 64))
(declare-fun temp648_24 () (_ BitVec 64))
(declare-fun ARGNAME_input_NAMEEND_NUMELEMENT () (_ BitVec 64))
(declare-fun var66478 () (_ BitVec 64))
(declare-fun temp648_25 () (_ BitVec 64))
(declare-fun temp648_27 () (_ BitVec 64))
(declare-fun temp648_26 () (_ BitVec 64))
(declare-fun temp648_29 () (_ BitVec 64))
(declare-fun temp648_28 () (_ BitVec 64))
(declare-fun temp648_31 () (_ BitVec 64))
(declare-fun temp648_30 () (_ BitVec 64))
(declare-fun temp648_33 () (_ BitVec 64))
(declare-fun temp648_32 () (_ BitVec 64))
(declare-fun temp648_35 () (_ BitVec 64))
(declare-fun temp648_34 () (_ BitVec 64))
(declare-fun temp648_37 () (_ BitVec 64))
(declare-fun temp648_36 () (_ BitVec 64))
(declare-fun temp648_39 () (_ BitVec 64))
(declare-fun temp648_38 () (_ BitVec 64))
(declare-fun temp648_41 () (_ BitVec 64))
(declare-fun temp648_40 () (_ BitVec 64))
(declare-fun temp648_43 () (_ BitVec 64))
(declare-fun temp648_42 () (_ BitVec 64))
(declare-fun temp648_44 () (_ BitVec 64))
(declare-fun var6948635 () (_ BitVec 64))
(declare-fun var6948636 () (_ BitVec 64))
(declare-fun temp648_45 () (_ BitVec 64))
(declare-fun var7014178 () (_ BitVec 64))
(declare-fun var7014179 () (_ BitVec 64))
(declare-fun temp648_46 () (_ BitVec 64))
(declare-fun var7278054 () (_ BitVec 64))
(declare-fun var7278056 () (_ BitVec 64))
(declare-fun var7343599 () (_ BitVec 64))
(declare-fun var7409143 () (_ BitVec 64))
(assert (= temp648_1 #x0000000000000040))
(assert (= var263431
   (ite (bvsgt ARGNAME_input_NAMEEND_DIM temp648_1)
        #x0000000000000001
        #x0000000000000000)))
(assert (= temp648_2 #x0000000000000000))
(assert (= var263431 temp648_2))
(assert (= temp648_4 #x0000000000000000))
(assert (= temp648_3 temp648_4))
(assert (= temp648_6 #x0000000000000000))
(assert (= temp648_5 temp648_6))
(assert (= temp648_7 #x0000000000000000))
(assert (= var856789 temp648_7))
(assert (= var922336 var856789))
(assert (= temp648_8 #x0000000000000001))
(assert (= var1708720 temp648_8))
(assert (= temp648_9 #x0000000000000001))
(assert (= var1967531 temp648_9))
(assert (= temp648_10 #x0000000000000001))
(assert (= var2755860 temp648_10))
(assert (= var2755868 var2755860))
(assert (= temp648_11 #x0000000000000005))
(assert (= var2887142 temp648_11))
(assert (= var2887144 var2887142))
(assert (= var2952687 var2887144))
(assert (= var3018231 var2952687))
(assert (= temp648_13 #x0000000000000000))
(assert (= temp648_12 temp648_13))
(assert (= var4328912
   (ite (bvslt temp648_12 ARGNAME_input_NAMEEND_DIM)
        #x0000000000000001
        #x0000000000000000)))
(assert (= temp648_14
   (ite (= var4328912 #x0000000000000001) ARGNAME_input_NAMEEND_DIM temp648_12)))
(assert (= temp648_15 #x0000000000000000))
(assert (= var4394453 temp648_15))
(assert (= var4460000 var4394453))
(assert (= var4261402 var4460000))
(assert (= temp648_16 #x0000000000000000))
(assert (= var66421 temp648_16))
(assert (= temp648_17 #x0000000000000001))
(assert (= var5377300 temp648_17))
(assert (= temp648_18 #x0000000000000000))
(assert (= var5442927 temp648_18))
(assert (= temp648_19 #x0000000000000001))
(assert (= var66448 (bvadd var66421 temp648_19)))
(assert (= temp648_21 #x0000000000000000))
(assert (= temp648_20 temp648_21))
(assert (= var66404 var66448))
(assert (= var66402 var66404))
(assert (= temp648_22 #x0000000000000000))
(assert (= var66408 (ite (= var66402 temp648_22) #x0000000000000001 #x0000000000000000)))
(assert (= temp648_23 #x0000000000000000))
(assert (= var66408 temp648_23))
(assert (= temp648_24 #x0000000000000002))
(assert (= var66478
   (ite (bvslt ARGNAME_input_NAMEEND_NUMELEMENT temp648_24)
        #x0000000000000001
        #x0000000000000000)))
(assert (= temp648_25 #x0000000000000000))
(assert (= var66478 temp648_25))
(assert (= temp648_27 #x0000000000000000))
(assert (= temp648_26 temp648_27))
(assert (= temp648_29 #x0000000000000000))
(assert (= temp648_28 temp648_29))
(assert (= temp648_31 #x0000000000000001))
(assert (= temp648_30 temp648_31))
(assert (= temp648_33 #x0000000000000000))
(assert (= temp648_32 temp648_33))
(assert (= temp648_35 #x0000000000000000))
(assert (= temp648_34 temp648_35))
(assert (= temp648_37 #x0000000000000001))
(assert (= temp648_36 temp648_37))
(assert (= temp648_39 #x0000000000000001))
(assert (= temp648_38 temp648_39))
(assert (= temp648_41 #x0000000000000001))
(assert (= temp648_40 temp648_41))
(assert (= temp648_43 #x0000000000000000))
(assert (= temp648_42 temp648_43))
(assert (= temp648_44 #x0000000000000000))
(assert (= var6948635 temp648_44))
(assert (= var6948636 var6948635))
(assert (= temp648_45 #x0000000000000000))
(assert (= var7014178 temp648_45))
(assert (= var7014179 var7014178))
(assert (= temp648_46 #x0000000000000005))
(assert (= var7278054 temp648_46))
(assert (= var7278056 var7278054))
(assert (= var7343599 var7278056))
(assert (= var7409143 var7343599))
(model-add temp648_1 () (_ BitVec 64) #x0000000000000040)
(model-add temp648_2 () (_ BitVec 64) #x0000000000000000)
(model-add var263431 () (_ BitVec 64) #x0000000000000000)
(model-del k!0)
(model-add ARGNAME_input_NAMEEND_DIM
           ()
           (_ BitVec 64)
           (ite (or k!0 (= #x0000000000000040 #x7fffffffffffffff))
                #x0000000000000040
                (bvadd #x0000000000000040 #x0000000000000001)))





